c nombre: 22
c densidad: 0.3
p edges 30 128
e 1 3
e 1 8
e 1 10
e 1 12
e 1 15
e 1 16
e 1 18
e 1 21
e 1 22
e 1 26
e 1 27
e 1 28
e 1 30
e 2 5
e 2 7
e 2 10
e 2 13
e 2 21
e 2 22
e 2 26
e 2 28
e 2 30
e 3 4
e 3 6
e 3 8
e 3 9
e 3 19
e 3 20
e 3 22
e 3 24
e 3 26
e 3 30
e 4 10
e 4 11
e 4 14
e 4 15
e 4 19
e 4 23
e 5 8
e 5 12
e 5 13
e 5 15
e 5 26
e 5 27
e 6 8
e 6 10
e 6 11
e 6 12
e 6 16
e 6 19
e 6 21
e 6 22
e 6 23
e 6 26
e 7 12
e 7 23
e 7 25
e 7 30
e 8 9
e 8 12
e 8 13
e 8 15
e 8 17
e 8 23
e 8 24
e 8 25
e 8 30
e 9 14
e 9 16
e 9 19
e 9 20
e 9 24
e 9 26
e 9 27
e 9 29
e 10 11
e 10 19
e 10 23
e 10 24
e 10 29
e 11 14
e 11 20
e 11 24
e 11 30
e 12 16
e 12 17
e 12 18
e 12 19
e 12 23
e 12 24
e 12 27
e 12 28
e 13 16
e 13 18
e 13 24
e 14 19
e 14 24
e 15 20
e 15 21
e 15 24
e 15 25
e 15 29
e 16 19
e 16 21
e 16 22
e 16 27
e 17 20
e 17 22
e 17 23
e 17 30
e 18 19
e 18 20
e 18 30
e 19 23
e 19 28
e 19 29
e 19 30
e 20 21
e 20 22
e 20 25
e 20 27
e 21 24
e 21 25
e 21 26
e 22 30
e 23 30
e 24 25
e 25 28
